c *********************************
c * Circuit generated by BenCGen
c *
c * Parity_341
c *
c * Ports with 1 gate(s): 1
c * Ports with 2 gate(s): 341
c * Total gates: 342
c *********************************
p cnf 683 1365
1 344 0
-1 -344 0
1 -343 0
344 -343 0
-1 -344 343 0
1 2 -345 0
-1 2 345 0
1 -2 345 0
-1 -2 -345 0
3 4 -346 0
-3 4 346 0
3 -4 346 0
-3 -4 -346 0
5 6 -347 0
-5 6 347 0
5 -6 347 0
-5 -6 -347 0
7 8 -348 0
-7 8 348 0
7 -8 348 0
-7 -8 -348 0
9 10 -349 0
-9 10 349 0
9 -10 349 0
-9 -10 -349 0
11 12 -350 0
-11 12 350 0
11 -12 350 0
-11 -12 -350 0
13 14 -351 0
-13 14 351 0
13 -14 351 0
-13 -14 -351 0
15 16 -352 0
-15 16 352 0
15 -16 352 0
-15 -16 -352 0
17 18 -353 0
-17 18 353 0
17 -18 353 0
-17 -18 -353 0
19 20 -354 0
-19 20 354 0
19 -20 354 0
-19 -20 -354 0
21 22 -355 0
-21 22 355 0
21 -22 355 0
-21 -22 -355 0
23 24 -356 0
-23 24 356 0
23 -24 356 0
-23 -24 -356 0
25 26 -357 0
-25 26 357 0
25 -26 357 0
-25 -26 -357 0
27 28 -358 0
-27 28 358 0
27 -28 358 0
-27 -28 -358 0
29 30 -359 0
-29 30 359 0
29 -30 359 0
-29 -30 -359 0
31 32 -360 0
-31 32 360 0
31 -32 360 0
-31 -32 -360 0
33 34 -361 0
-33 34 361 0
33 -34 361 0
-33 -34 -361 0
35 36 -362 0
-35 36 362 0
35 -36 362 0
-35 -36 -362 0
37 38 -363 0
-37 38 363 0
37 -38 363 0
-37 -38 -363 0
39 40 -364 0
-39 40 364 0
39 -40 364 0
-39 -40 -364 0
41 42 -365 0
-41 42 365 0
41 -42 365 0
-41 -42 -365 0
43 44 -366 0
-43 44 366 0
43 -44 366 0
-43 -44 -366 0
45 46 -367 0
-45 46 367 0
45 -46 367 0
-45 -46 -367 0
47 48 -368 0
-47 48 368 0
47 -48 368 0
-47 -48 -368 0
49 50 -369 0
-49 50 369 0
49 -50 369 0
-49 -50 -369 0
51 52 -370 0
-51 52 370 0
51 -52 370 0
-51 -52 -370 0
53 54 -371 0
-53 54 371 0
53 -54 371 0
-53 -54 -371 0
55 56 -372 0
-55 56 372 0
55 -56 372 0
-55 -56 -372 0
57 58 -373 0
-57 58 373 0
57 -58 373 0
-57 -58 -373 0
59 60 -374 0
-59 60 374 0
59 -60 374 0
-59 -60 -374 0
61 62 -375 0
-61 62 375 0
61 -62 375 0
-61 -62 -375 0
63 64 -376 0
-63 64 376 0
63 -64 376 0
-63 -64 -376 0
65 66 -377 0
-65 66 377 0
65 -66 377 0
-65 -66 -377 0
67 68 -378 0
-67 68 378 0
67 -68 378 0
-67 -68 -378 0
69 70 -379 0
-69 70 379 0
69 -70 379 0
-69 -70 -379 0
71 72 -380 0
-71 72 380 0
71 -72 380 0
-71 -72 -380 0
73 74 -381 0
-73 74 381 0
73 -74 381 0
-73 -74 -381 0
75 76 -382 0
-75 76 382 0
75 -76 382 0
-75 -76 -382 0
77 78 -383 0
-77 78 383 0
77 -78 383 0
-77 -78 -383 0
79 80 -384 0
-79 80 384 0
79 -80 384 0
-79 -80 -384 0
81 82 -385 0
-81 82 385 0
81 -82 385 0
-81 -82 -385 0
83 84 -386 0
-83 84 386 0
83 -84 386 0
-83 -84 -386 0
85 86 -387 0
-85 86 387 0
85 -86 387 0
-85 -86 -387 0
87 88 -388 0
-87 88 388 0
87 -88 388 0
-87 -88 -388 0
89 90 -389 0
-89 90 389 0
89 -90 389 0
-89 -90 -389 0
91 92 -390 0
-91 92 390 0
91 -92 390 0
-91 -92 -390 0
93 94 -391 0
-93 94 391 0
93 -94 391 0
-93 -94 -391 0
95 96 -392 0
-95 96 392 0
95 -96 392 0
-95 -96 -392 0
97 98 -393 0
-97 98 393 0
97 -98 393 0
-97 -98 -393 0
99 100 -394 0
-99 100 394 0
99 -100 394 0
-99 -100 -394 0
101 102 -395 0
-101 102 395 0
101 -102 395 0
-101 -102 -395 0
103 104 -396 0
-103 104 396 0
103 -104 396 0
-103 -104 -396 0
105 106 -397 0
-105 106 397 0
105 -106 397 0
-105 -106 -397 0
107 108 -398 0
-107 108 398 0
107 -108 398 0
-107 -108 -398 0
109 110 -399 0
-109 110 399 0
109 -110 399 0
-109 -110 -399 0
111 112 -400 0
-111 112 400 0
111 -112 400 0
-111 -112 -400 0
113 114 -401 0
-113 114 401 0
113 -114 401 0
-113 -114 -401 0
115 116 -402 0
-115 116 402 0
115 -116 402 0
-115 -116 -402 0
117 118 -403 0
-117 118 403 0
117 -118 403 0
-117 -118 -403 0
119 120 -404 0
-119 120 404 0
119 -120 404 0
-119 -120 -404 0
121 122 -405 0
-121 122 405 0
121 -122 405 0
-121 -122 -405 0
123 124 -406 0
-123 124 406 0
123 -124 406 0
-123 -124 -406 0
125 126 -407 0
-125 126 407 0
125 -126 407 0
-125 -126 -407 0
127 128 -408 0
-127 128 408 0
127 -128 408 0
-127 -128 -408 0
129 130 -409 0
-129 130 409 0
129 -130 409 0
-129 -130 -409 0
131 132 -410 0
-131 132 410 0
131 -132 410 0
-131 -132 -410 0
133 134 -411 0
-133 134 411 0
133 -134 411 0
-133 -134 -411 0
135 136 -412 0
-135 136 412 0
135 -136 412 0
-135 -136 -412 0
137 138 -413 0
-137 138 413 0
137 -138 413 0
-137 -138 -413 0
139 140 -414 0
-139 140 414 0
139 -140 414 0
-139 -140 -414 0
141 142 -415 0
-141 142 415 0
141 -142 415 0
-141 -142 -415 0
143 144 -416 0
-143 144 416 0
143 -144 416 0
-143 -144 -416 0
145 146 -417 0
-145 146 417 0
145 -146 417 0
-145 -146 -417 0
147 148 -418 0
-147 148 418 0
147 -148 418 0
-147 -148 -418 0
149 150 -419 0
-149 150 419 0
149 -150 419 0
-149 -150 -419 0
151 152 -420 0
-151 152 420 0
151 -152 420 0
-151 -152 -420 0
153 154 -421 0
-153 154 421 0
153 -154 421 0
-153 -154 -421 0
155 156 -422 0
-155 156 422 0
155 -156 422 0
-155 -156 -422 0
157 158 -423 0
-157 158 423 0
157 -158 423 0
-157 -158 -423 0
159 160 -424 0
-159 160 424 0
159 -160 424 0
-159 -160 -424 0
161 162 -425 0
-161 162 425 0
161 -162 425 0
-161 -162 -425 0
163 164 -426 0
-163 164 426 0
163 -164 426 0
-163 -164 -426 0
165 166 -427 0
-165 166 427 0
165 -166 427 0
-165 -166 -427 0
167 168 -428 0
-167 168 428 0
167 -168 428 0
-167 -168 -428 0
169 170 -429 0
-169 170 429 0
169 -170 429 0
-169 -170 -429 0
171 172 -430 0
-171 172 430 0
171 -172 430 0
-171 -172 -430 0
173 174 -431 0
-173 174 431 0
173 -174 431 0
-173 -174 -431 0
175 176 -432 0
-175 176 432 0
175 -176 432 0
-175 -176 -432 0
177 178 -433 0
-177 178 433 0
177 -178 433 0
-177 -178 -433 0
179 180 -434 0
-179 180 434 0
179 -180 434 0
-179 -180 -434 0
181 182 -435 0
-181 182 435 0
181 -182 435 0
-181 -182 -435 0
183 184 -436 0
-183 184 436 0
183 -184 436 0
-183 -184 -436 0
185 186 -437 0
-185 186 437 0
185 -186 437 0
-185 -186 -437 0
187 188 -438 0
-187 188 438 0
187 -188 438 0
-187 -188 -438 0
189 190 -439 0
-189 190 439 0
189 -190 439 0
-189 -190 -439 0
191 192 -440 0
-191 192 440 0
191 -192 440 0
-191 -192 -440 0
193 194 -441 0
-193 194 441 0
193 -194 441 0
-193 -194 -441 0
195 196 -442 0
-195 196 442 0
195 -196 442 0
-195 -196 -442 0
197 198 -443 0
-197 198 443 0
197 -198 443 0
-197 -198 -443 0
199 200 -444 0
-199 200 444 0
199 -200 444 0
-199 -200 -444 0
201 202 -445 0
-201 202 445 0
201 -202 445 0
-201 -202 -445 0
203 204 -446 0
-203 204 446 0
203 -204 446 0
-203 -204 -446 0
205 206 -447 0
-205 206 447 0
205 -206 447 0
-205 -206 -447 0
207 208 -448 0
-207 208 448 0
207 -208 448 0
-207 -208 -448 0
209 210 -449 0
-209 210 449 0
209 -210 449 0
-209 -210 -449 0
211 212 -450 0
-211 212 450 0
211 -212 450 0
-211 -212 -450 0
213 214 -451 0
-213 214 451 0
213 -214 451 0
-213 -214 -451 0
215 216 -452 0
-215 216 452 0
215 -216 452 0
-215 -216 -452 0
217 218 -453 0
-217 218 453 0
217 -218 453 0
-217 -218 -453 0
219 220 -454 0
-219 220 454 0
219 -220 454 0
-219 -220 -454 0
221 222 -455 0
-221 222 455 0
221 -222 455 0
-221 -222 -455 0
223 224 -456 0
-223 224 456 0
223 -224 456 0
-223 -224 -456 0
225 226 -457 0
-225 226 457 0
225 -226 457 0
-225 -226 -457 0
227 228 -458 0
-227 228 458 0
227 -228 458 0
-227 -228 -458 0
229 230 -459 0
-229 230 459 0
229 -230 459 0
-229 -230 -459 0
231 232 -460 0
-231 232 460 0
231 -232 460 0
-231 -232 -460 0
233 234 -461 0
-233 234 461 0
233 -234 461 0
-233 -234 -461 0
235 236 -462 0
-235 236 462 0
235 -236 462 0
-235 -236 -462 0
237 238 -463 0
-237 238 463 0
237 -238 463 0
-237 -238 -463 0
239 240 -464 0
-239 240 464 0
239 -240 464 0
-239 -240 -464 0
241 242 -465 0
-241 242 465 0
241 -242 465 0
-241 -242 -465 0
243 244 -466 0
-243 244 466 0
243 -244 466 0
-243 -244 -466 0
245 246 -467 0
-245 246 467 0
245 -246 467 0
-245 -246 -467 0
247 248 -468 0
-247 248 468 0
247 -248 468 0
-247 -248 -468 0
249 250 -469 0
-249 250 469 0
249 -250 469 0
-249 -250 -469 0
251 252 -470 0
-251 252 470 0
251 -252 470 0
-251 -252 -470 0
253 254 -471 0
-253 254 471 0
253 -254 471 0
-253 -254 -471 0
255 256 -472 0
-255 256 472 0
255 -256 472 0
-255 -256 -472 0
257 258 -473 0
-257 258 473 0
257 -258 473 0
-257 -258 -473 0
259 260 -474 0
-259 260 474 0
259 -260 474 0
-259 -260 -474 0
261 262 -475 0
-261 262 475 0
261 -262 475 0
-261 -262 -475 0
263 264 -476 0
-263 264 476 0
263 -264 476 0
-263 -264 -476 0
265 266 -477 0
-265 266 477 0
265 -266 477 0
-265 -266 -477 0
267 268 -478 0
-267 268 478 0
267 -268 478 0
-267 -268 -478 0
269 270 -479 0
-269 270 479 0
269 -270 479 0
-269 -270 -479 0
271 272 -480 0
-271 272 480 0
271 -272 480 0
-271 -272 -480 0
273 274 -481 0
-273 274 481 0
273 -274 481 0
-273 -274 -481 0
275 276 -482 0
-275 276 482 0
275 -276 482 0
-275 -276 -482 0
277 278 -483 0
-277 278 483 0
277 -278 483 0
-277 -278 -483 0
279 280 -484 0
-279 280 484 0
279 -280 484 0
-279 -280 -484 0
281 282 -485 0
-281 282 485 0
281 -282 485 0
-281 -282 -485 0
283 284 -486 0
-283 284 486 0
283 -284 486 0
-283 -284 -486 0
285 286 -487 0
-285 286 487 0
285 -286 487 0
-285 -286 -487 0
287 288 -488 0
-287 288 488 0
287 -288 488 0
-287 -288 -488 0
289 290 -489 0
-289 290 489 0
289 -290 489 0
-289 -290 -489 0
291 292 -490 0
-291 292 490 0
291 -292 490 0
-291 -292 -490 0
293 294 -491 0
-293 294 491 0
293 -294 491 0
-293 -294 -491 0
295 296 -492 0
-295 296 492 0
295 -296 492 0
-295 -296 -492 0
297 298 -493 0
-297 298 493 0
297 -298 493 0
-297 -298 -493 0
299 300 -494 0
-299 300 494 0
299 -300 494 0
-299 -300 -494 0
301 302 -495 0
-301 302 495 0
301 -302 495 0
-301 -302 -495 0
303 304 -496 0
-303 304 496 0
303 -304 496 0
-303 -304 -496 0
305 306 -497 0
-305 306 497 0
305 -306 497 0
-305 -306 -497 0
307 308 -498 0
-307 308 498 0
307 -308 498 0
-307 -308 -498 0
309 310 -499 0
-309 310 499 0
309 -310 499 0
-309 -310 -499 0
311 312 -500 0
-311 312 500 0
311 -312 500 0
-311 -312 -500 0
313 314 -501 0
-313 314 501 0
313 -314 501 0
-313 -314 -501 0
315 316 -502 0
-315 316 502 0
315 -316 502 0
-315 -316 -502 0
317 318 -503 0
-317 318 503 0
317 -318 503 0
-317 -318 -503 0
319 320 -504 0
-319 320 504 0
319 -320 504 0
-319 -320 -504 0
321 322 -505 0
-321 322 505 0
321 -322 505 0
-321 -322 -505 0
323 324 -506 0
-323 324 506 0
323 -324 506 0
-323 -324 -506 0
325 326 -507 0
-325 326 507 0
325 -326 507 0
-325 -326 -507 0
327 328 -508 0
-327 328 508 0
327 -328 508 0
-327 -328 -508 0
329 330 -509 0
-329 330 509 0
329 -330 509 0
-329 -330 -509 0
331 332 -510 0
-331 332 510 0
331 -332 510 0
-331 -332 -510 0
333 334 -511 0
-333 334 511 0
333 -334 511 0
-333 -334 -511 0
335 336 -512 0
-335 336 512 0
335 -336 512 0
-335 -336 -512 0
337 338 -513 0
-337 338 513 0
337 -338 513 0
-337 -338 -513 0
339 340 -514 0
-339 340 514 0
339 -340 514 0
-339 -340 -514 0
345 346 -515 0
-345 346 515 0
345 -346 515 0
-345 -346 -515 0
347 348 -516 0
-347 348 516 0
347 -348 516 0
-347 -348 -516 0
349 350 -517 0
-349 350 517 0
349 -350 517 0
-349 -350 -517 0
351 352 -518 0
-351 352 518 0
351 -352 518 0
-351 -352 -518 0
353 354 -519 0
-353 354 519 0
353 -354 519 0
-353 -354 -519 0
355 356 -520 0
-355 356 520 0
355 -356 520 0
-355 -356 -520 0
357 358 -521 0
-357 358 521 0
357 -358 521 0
-357 -358 -521 0
359 360 -522 0
-359 360 522 0
359 -360 522 0
-359 -360 -522 0
361 362 -523 0
-361 362 523 0
361 -362 523 0
-361 -362 -523 0
363 364 -524 0
-363 364 524 0
363 -364 524 0
-363 -364 -524 0
365 366 -525 0
-365 366 525 0
365 -366 525 0
-365 -366 -525 0
367 368 -526 0
-367 368 526 0
367 -368 526 0
-367 -368 -526 0
369 370 -527 0
-369 370 527 0
369 -370 527 0
-369 -370 -527 0
371 372 -528 0
-371 372 528 0
371 -372 528 0
-371 -372 -528 0
373 374 -529 0
-373 374 529 0
373 -374 529 0
-373 -374 -529 0
375 376 -530 0
-375 376 530 0
375 -376 530 0
-375 -376 -530 0
377 378 -531 0
-377 378 531 0
377 -378 531 0
-377 -378 -531 0
379 380 -532 0
-379 380 532 0
379 -380 532 0
-379 -380 -532 0
381 382 -533 0
-381 382 533 0
381 -382 533 0
-381 -382 -533 0
383 384 -534 0
-383 384 534 0
383 -384 534 0
-383 -384 -534 0
385 386 -535 0
-385 386 535 0
385 -386 535 0
-385 -386 -535 0
387 388 -536 0
-387 388 536 0
387 -388 536 0
-387 -388 -536 0
389 390 -537 0
-389 390 537 0
389 -390 537 0
-389 -390 -537 0
391 392 -538 0
-391 392 538 0
391 -392 538 0
-391 -392 -538 0
393 394 -539 0
-393 394 539 0
393 -394 539 0
-393 -394 -539 0
395 396 -540 0
-395 396 540 0
395 -396 540 0
-395 -396 -540 0
397 398 -541 0
-397 398 541 0
397 -398 541 0
-397 -398 -541 0
399 400 -542 0
-399 400 542 0
399 -400 542 0
-399 -400 -542 0
401 402 -543 0
-401 402 543 0
401 -402 543 0
-401 -402 -543 0
403 404 -544 0
-403 404 544 0
403 -404 544 0
-403 -404 -544 0
405 406 -545 0
-405 406 545 0
405 -406 545 0
-405 -406 -545 0
407 408 -546 0
-407 408 546 0
407 -408 546 0
-407 -408 -546 0
409 410 -547 0
-409 410 547 0
409 -410 547 0
-409 -410 -547 0
411 412 -548 0
-411 412 548 0
411 -412 548 0
-411 -412 -548 0
413 414 -549 0
-413 414 549 0
413 -414 549 0
-413 -414 -549 0
415 416 -550 0
-415 416 550 0
415 -416 550 0
-415 -416 -550 0
417 418 -551 0
-417 418 551 0
417 -418 551 0
-417 -418 -551 0
419 420 -552 0
-419 420 552 0
419 -420 552 0
-419 -420 -552 0
421 422 -553 0
-421 422 553 0
421 -422 553 0
-421 -422 -553 0
423 424 -554 0
-423 424 554 0
423 -424 554 0
-423 -424 -554 0
425 426 -555 0
-425 426 555 0
425 -426 555 0
-425 -426 -555 0
427 428 -556 0
-427 428 556 0
427 -428 556 0
-427 -428 -556 0
429 430 -557 0
-429 430 557 0
429 -430 557 0
-429 -430 -557 0
431 432 -558 0
-431 432 558 0
431 -432 558 0
-431 -432 -558 0
433 434 -559 0
-433 434 559 0
433 -434 559 0
-433 -434 -559 0
435 436 -560 0
-435 436 560 0
435 -436 560 0
-435 -436 -560 0
437 438 -561 0
-437 438 561 0
437 -438 561 0
-437 -438 -561 0
439 440 -562 0
-439 440 562 0
439 -440 562 0
-439 -440 -562 0
441 442 -563 0
-441 442 563 0
441 -442 563 0
-441 -442 -563 0
443 444 -564 0
-443 444 564 0
443 -444 564 0
-443 -444 -564 0
445 446 -565 0
-445 446 565 0
445 -446 565 0
-445 -446 -565 0
447 448 -566 0
-447 448 566 0
447 -448 566 0
-447 -448 -566 0
449 450 -567 0
-449 450 567 0
449 -450 567 0
-449 -450 -567 0
451 452 -568 0
-451 452 568 0
451 -452 568 0
-451 -452 -568 0
453 454 -569 0
-453 454 569 0
453 -454 569 0
-453 -454 -569 0
455 456 -570 0
-455 456 570 0
455 -456 570 0
-455 -456 -570 0
457 458 -571 0
-457 458 571 0
457 -458 571 0
-457 -458 -571 0
459 460 -572 0
-459 460 572 0
459 -460 572 0
-459 -460 -572 0
461 462 -573 0
-461 462 573 0
461 -462 573 0
-461 -462 -573 0
463 464 -574 0
-463 464 574 0
463 -464 574 0
-463 -464 -574 0
465 466 -575 0
-465 466 575 0
465 -466 575 0
-465 -466 -575 0
467 468 -576 0
-467 468 576 0
467 -468 576 0
-467 -468 -576 0
469 470 -577 0
-469 470 577 0
469 -470 577 0
-469 -470 -577 0
471 472 -578 0
-471 472 578 0
471 -472 578 0
-471 -472 -578 0
473 474 -579 0
-473 474 579 0
473 -474 579 0
-473 -474 -579 0
475 476 -580 0
-475 476 580 0
475 -476 580 0
-475 -476 -580 0
477 478 -581 0
-477 478 581 0
477 -478 581 0
-477 -478 -581 0
479 480 -582 0
-479 480 582 0
479 -480 582 0
-479 -480 -582 0
481 482 -583 0
-481 482 583 0
481 -482 583 0
-481 -482 -583 0
483 484 -584 0
-483 484 584 0
483 -484 584 0
-483 -484 -584 0
485 486 -585 0
-485 486 585 0
485 -486 585 0
-485 -486 -585 0
487 488 -586 0
-487 488 586 0
487 -488 586 0
-487 -488 -586 0
489 490 -587 0
-489 490 587 0
489 -490 587 0
-489 -490 -587 0
491 492 -588 0
-491 492 588 0
491 -492 588 0
-491 -492 -588 0
493 494 -589 0
-493 494 589 0
493 -494 589 0
-493 -494 -589 0
495 496 -590 0
-495 496 590 0
495 -496 590 0
-495 -496 -590 0
497 498 -591 0
-497 498 591 0
497 -498 591 0
-497 -498 -591 0
499 500 -592 0
-499 500 592 0
499 -500 592 0
-499 -500 -592 0
501 502 -593 0
-501 502 593 0
501 -502 593 0
-501 -502 -593 0
503 504 -594 0
-503 504 594 0
503 -504 594 0
-503 -504 -594 0
505 506 -595 0
-505 506 595 0
505 -506 595 0
-505 -506 -595 0
507 508 -596 0
-507 508 596 0
507 -508 596 0
-507 -508 -596 0
509 510 -597 0
-509 510 597 0
509 -510 597 0
-509 -510 -597 0
511 512 -598 0
-511 512 598 0
511 -512 598 0
-511 -512 -598 0
513 514 -599 0
-513 514 599 0
513 -514 599 0
-513 -514 -599 0
515 516 -600 0
-515 516 600 0
515 -516 600 0
-515 -516 -600 0
517 518 -601 0
-517 518 601 0
517 -518 601 0
-517 -518 -601 0
519 520 -602 0
-519 520 602 0
519 -520 602 0
-519 -520 -602 0
521 522 -603 0
-521 522 603 0
521 -522 603 0
-521 -522 -603 0
523 524 -604 0
-523 524 604 0
523 -524 604 0
-523 -524 -604 0
525 526 -605 0
-525 526 605 0
525 -526 605 0
-525 -526 -605 0
527 528 -606 0
-527 528 606 0
527 -528 606 0
-527 -528 -606 0
529 530 -607 0
-529 530 607 0
529 -530 607 0
-529 -530 -607 0
531 532 -608 0
-531 532 608 0
531 -532 608 0
-531 -532 -608 0
533 534 -609 0
-533 534 609 0
533 -534 609 0
-533 -534 -609 0
535 536 -610 0
-535 536 610 0
535 -536 610 0
-535 -536 -610 0
537 538 -611 0
-537 538 611 0
537 -538 611 0
-537 -538 -611 0
539 540 -612 0
-539 540 612 0
539 -540 612 0
-539 -540 -612 0
541 542 -613 0
-541 542 613 0
541 -542 613 0
-541 -542 -613 0
543 544 -614 0
-543 544 614 0
543 -544 614 0
-543 -544 -614 0
545 546 -615 0
-545 546 615 0
545 -546 615 0
-545 -546 -615 0
547 548 -616 0
-547 548 616 0
547 -548 616 0
-547 -548 -616 0
549 550 -617 0
-549 550 617 0
549 -550 617 0
-549 -550 -617 0
551 552 -618 0
-551 552 618 0
551 -552 618 0
-551 -552 -618 0
553 554 -619 0
-553 554 619 0
553 -554 619 0
-553 -554 -619 0
555 556 -620 0
-555 556 620 0
555 -556 620 0
-555 -556 -620 0
557 558 -621 0
-557 558 621 0
557 -558 621 0
-557 -558 -621 0
559 560 -622 0
-559 560 622 0
559 -560 622 0
-559 -560 -622 0
561 562 -623 0
-561 562 623 0
561 -562 623 0
-561 -562 -623 0
563 564 -624 0
-563 564 624 0
563 -564 624 0
-563 -564 -624 0
565 566 -625 0
-565 566 625 0
565 -566 625 0
-565 -566 -625 0
567 568 -626 0
-567 568 626 0
567 -568 626 0
-567 -568 -626 0
569 570 -627 0
-569 570 627 0
569 -570 627 0
-569 -570 -627 0
571 572 -628 0
-571 572 628 0
571 -572 628 0
-571 -572 -628 0
573 574 -629 0
-573 574 629 0
573 -574 629 0
-573 -574 -629 0
575 576 -630 0
-575 576 630 0
575 -576 630 0
-575 -576 -630 0
577 578 -631 0
-577 578 631 0
577 -578 631 0
-577 -578 -631 0
579 580 -632 0
-579 580 632 0
579 -580 632 0
-579 -580 -632 0
581 582 -633 0
-581 582 633 0
581 -582 633 0
-581 -582 -633 0
583 584 -634 0
-583 584 634 0
583 -584 634 0
-583 -584 -634 0
585 586 -635 0
-585 586 635 0
585 -586 635 0
-585 -586 -635 0
587 588 -636 0
-587 588 636 0
587 -588 636 0
-587 -588 -636 0
589 590 -637 0
-589 590 637 0
589 -590 637 0
-589 -590 -637 0
591 592 -638 0
-591 592 638 0
591 -592 638 0
-591 -592 -638 0
593 594 -639 0
-593 594 639 0
593 -594 639 0
-593 -594 -639 0
595 596 -640 0
-595 596 640 0
595 -596 640 0
-595 -596 -640 0
597 598 -641 0
-597 598 641 0
597 -598 641 0
-597 -598 -641 0
599 341 -642 0
-599 341 642 0
599 -341 642 0
-599 -341 -642 0
600 601 -643 0
-600 601 643 0
600 -601 643 0
-600 -601 -643 0
602 603 -644 0
-602 603 644 0
602 -603 644 0
-602 -603 -644 0
604 605 -645 0
-604 605 645 0
604 -605 645 0
-604 -605 -645 0
606 607 -646 0
-606 607 646 0
606 -607 646 0
-606 -607 -646 0
608 609 -647 0
-608 609 647 0
608 -609 647 0
-608 -609 -647 0
610 611 -648 0
-610 611 648 0
610 -611 648 0
-610 -611 -648 0
612 613 -649 0
-612 613 649 0
612 -613 649 0
-612 -613 -649 0
614 615 -650 0
-614 615 650 0
614 -615 650 0
-614 -615 -650 0
616 617 -651 0
-616 617 651 0
616 -617 651 0
-616 -617 -651 0
618 619 -652 0
-618 619 652 0
618 -619 652 0
-618 -619 -652 0
620 621 -653 0
-620 621 653 0
620 -621 653 0
-620 -621 -653 0
622 623 -654 0
-622 623 654 0
622 -623 654 0
-622 -623 -654 0
624 625 -655 0
-624 625 655 0
624 -625 655 0
-624 -625 -655 0
626 627 -656 0
-626 627 656 0
626 -627 656 0
-626 -627 -656 0
628 629 -657 0
-628 629 657 0
628 -629 657 0
-628 -629 -657 0
630 631 -658 0
-630 631 658 0
630 -631 658 0
-630 -631 -658 0
632 633 -659 0
-632 633 659 0
632 -633 659 0
-632 -633 -659 0
634 635 -660 0
-634 635 660 0
634 -635 660 0
-634 -635 -660 0
636 637 -661 0
-636 637 661 0
636 -637 661 0
-636 -637 -661 0
638 639 -662 0
-638 639 662 0
638 -639 662 0
-638 -639 -662 0
640 641 -663 0
-640 641 663 0
640 -641 663 0
-640 -641 -663 0
643 644 -664 0
-643 644 664 0
643 -644 664 0
-643 -644 -664 0
645 646 -665 0
-645 646 665 0
645 -646 665 0
-645 -646 -665 0
647 648 -666 0
-647 648 666 0
647 -648 666 0
-647 -648 -666 0
649 650 -667 0
-649 650 667 0
649 -650 667 0
-649 -650 -667 0
651 652 -668 0
-651 652 668 0
651 -652 668 0
-651 -652 -668 0
653 654 -669 0
-653 654 669 0
653 -654 669 0
-653 -654 -669 0
655 656 -670 0
-655 656 670 0
655 -656 670 0
-655 -656 -670 0
657 658 -671 0
-657 658 671 0
657 -658 671 0
-657 -658 -671 0
659 660 -672 0
-659 660 672 0
659 -660 672 0
-659 -660 -672 0
661 662 -673 0
-661 662 673 0
661 -662 673 0
-661 -662 -673 0
663 642 -674 0
-663 642 674 0
663 -642 674 0
-663 -642 -674 0
664 665 -675 0
-664 665 675 0
664 -665 675 0
-664 -665 -675 0
666 667 -676 0
-666 667 676 0
666 -667 676 0
-666 -667 -676 0
668 669 -677 0
-668 669 677 0
668 -669 677 0
-668 -669 -677 0
670 671 -678 0
-670 671 678 0
670 -671 678 0
-670 -671 -678 0
672 673 -679 0
-672 673 679 0
672 -673 679 0
-672 -673 -679 0
675 676 -680 0
-675 676 680 0
675 -676 680 0
-675 -676 -680 0
677 678 -681 0
-677 678 681 0
677 -678 681 0
-677 -678 -681 0
679 674 -682 0
-679 674 682 0
679 -674 682 0
-679 -674 -682 0
680 681 -683 0
-680 681 683 0
680 -681 683 0
-680 -681 -683 0
683 682 -342 0
-683 682 342 0
683 -682 342 0
-683 -682 -342 0
